; benchmark generated from python API
(set-info :status unknown)
(declare-fun syscall_stub_newfstatat_83_64 () (_ BitVec 64))
(declare-fun mem_c0080010_84_32 () (_ BitVec 32))
(declare-fun mem_c0080008_85_32 () (_ BitVec 32))
(declare-fun mem_c0080024_86_32 () (_ BitVec 32))
(declare-fun mem_c0080020_87_32 () (_ BitVec 32))
(declare-fun mem_c0080014_89_32 () (_ BitVec 32))
(declare-fun mem_c0080018_88_32 () (_ BitVec 32))
(declare-fun mem_c0000f45_79_992 () (_ BitVec 992))
(assert
 (let ((?x47 ((_ extract 31 0) syscall_stub_newfstatat_83_64)))
 (bvule ?x47 (_ bv4294963200 32))))
(assert
 (let ((?x116 ((_ zero_extend 32) mem_c0080010_84_32)))
 (let ((?x113 (bvshl ?x116 (_ bv1 64))))
 (let ((?x114 (bvadd ?x116 ?x113)))
 (let ((?x112 (bvshl ?x114 (_ bv2 64))))
 (let ((?x125 ((_ zero_extend 32) mem_c0080008_85_32)))
 (let ((?x119 (bvadd ?x125 ?x112)))
 (let ((?x108 ((_ zero_extend 32) mem_c0080024_86_32)))
 (let ((?x105 (bvshl ?x108 (_ bv1 64))))
 (let ((?x106 (bvadd ?x108 ?x105)))
 (let ((?x103 (bvshl ?x106 (_ bv3 64))))
 (let ((?x109 (bvadd ?x106 ?x103)))
 (let ((?x137 (bvshl ?x109 (_ bv2 64))))
 (let ((?x136 ((_ zero_extend 32) mem_c0080020_87_32)))
 (let ((?x138 (bvadd ?x136 ?x137)))
 (let (($x139 (bvslt ?x119 ?x138)))
 (let ((?x140 (ite $x139 ?x138 ?x119)))
 (let ((?x123 (bvadd mem_c0080018_88_32 mem_c0080014_89_32)))
 (let ((?x124 ((_ zero_extend 32) ?x123)))
 (let (($x141 (bvslt ?x140 ?x124)))
 (let ((?x142 (ite $x141 ?x124 ?x140)))
 (bvuge (_ bv0 64) ?x142))))))))))))))))))))))
(assert
 (bvule mem_c0080010_84_32 (_ bv2 32)))
(assert
 (let ((?x1052 ((_ extract 903 896) mem_c0000f45_79_992)))
 (let ((?x1028 (bvand ?x1052 (_ bv16 8))))
 (and (distinct (_ bv0 8) ?x1028) true))))
(minimize mem_c0080024_86_32)
(minimize syscall_stub_newfstatat_83_64)
(minimize mem_c0080010_84_32)
(maximize mem_c0080024_86_32)
(minimize mem_c0000f45_79_992)
(maximize mem_c0080010_84_32)
(minimize mem_c0080014_89_32)
(maximize mem_c0000f45_79_992)
(maximize mem_c0080014_89_32)
(maximize syscall_stub_newfstatat_83_64)
(minimize mem_c0080020_87_32)
(maximize mem_c0080020_87_32)
(minimize mem_c0080008_85_32)
(maximize mem_c0080008_85_32)
(minimize mem_c0080018_88_32)
(check-sat)
(get-objectives)
